11041
26,36,38,33,39,42,40,37,41,43,48,54,49,53,34,31,29,18,14,11,9,8,4,2,1,3,6,10,13,12,15,7,5,0,22,24,16,25,23,20,17,32,27,28,44,56,63,67,65,66,72,60,57,55,52,69,76,78,82,87,91,94,95,92,90,102,101,108,112,113,118,121,117,96,104,106,107,109,111,114,115,99,105,116,120,119,127,122,123,128,134,132,130,135,142,147,154,150,157,158,164,167,166,169,179,177,180,176,183,187,190,191,188,189,186,185,178,173,172,174,181,175,168,160,162,163,171,182,193,192,184,170,165,159,161,146,151,152,149,153,156,143,140,138,137,141,145,148,155,144,139,136,133,131,126,124,125,129,110,103,100,98,93,89,88,97,85,84,64,19,62,35,58,61,81,79,86,75,70,74,77,73,68,71,80,83,59,21,30,45,47,46,50,51,26